48 60
6 3 1
1 7 2
7 5 3
4 4 1
4 1 1
2 10 1
2 6 1
2 5 1
6 7 1
6 1 1
8 10 1
1 9 1
6 8 1
10 7 1
1 3 2
1 4 1
7 4 1
6 6 2
2 1 2
10 1 1
8 1 3
9 9 1
8 9 1
5 5 1
1 8 2
2 7 1
7 1 1
8 6 2
5 7 2
1 6 1
9 3 1
10 6 2
7 7 1
3 8 1
2 8 1
5 8 1
5 9 1
3 7 1
10 10 1
9 6 1
5 4 1
10 5 1
4 7 1
10 9 1
8 3 1
8 5 1
8 7 1
3 10 1
30 30 
30 30 
30 30 
30 30 
30 30 
30 30 
30 30 
30 30 
30 30 
30 30 
30 30 
30 30 
30 30 
30 30 
30 30 
30 30 
30 30 
30 30 
30 30 
30 30 
30 30 
30 30 
30 30 
30 30 
30 30 
30 30 
30 30 
30 30 
30 30 
30 30 
30 30 
30 30 
30 30 
30 30 
30 30 
30 30 
30 30 
30 30 
30 30 
30 30 
30 30 
30 30 
30 30 
30 30 
30 30 
30 30 
30 30 
30 30 
30 30 
30 30 
30 30 
30 30 
30 30 
30 30 
30 30 
30 30 
30 30 
30 30 
30 30 
30 30 
